(set-info :smt-lib-version 2.6)
(set-logic QF_LRA)
(set-info :source |
Fully parameterized specification and verification of a synchronizer   
circuit modeling metastability at various levels of refinement.     
A paper describing this specification, to be published in Designing     
Correct Circuits (DCC), 2006, is available from the authors.            

Geoffrey Brown, Indiana University <geobrown@cs.indiana.edu>
Lee Pike, Galois Connections, Inc. <leepike@galois.com>

Translated into CVC format by Leonardo de Moura.

This benchmark was automatically translated into SMT-LIB format from
CVC format using CVC Lite

|)
(set-info :category "industrial")
(set-info :status sat)
(declare-fun x_0 () Bool)
(declare-fun x_1 () Bool)
(declare-fun x_2 () Real)
(declare-fun x_3 () Real)
(declare-fun x_4 () Bool)
(declare-fun x_5 () Bool)
(declare-fun x_6 () Real)
(declare-fun x_7 () Real)
(declare-fun x_8 () Bool)
(declare-fun x_9 () Bool)
(declare-fun x_10 () Real)
(declare-fun x_11 () Real)
(declare-fun x_12 () Bool)
(declare-fun x_13 () Bool)
(declare-fun x_14 () Real)
(declare-fun x_15 () Real)
(declare-fun x_16 () Bool)
(declare-fun x_17 () Bool)
(declare-fun x_18 () Real)
(declare-fun x_19 () Real)
(declare-fun x_20 () Bool)
(declare-fun x_21 () Bool)
(declare-fun x_22 () Real)
(declare-fun x_23 () Real)
(declare-fun x_24 () Bool)
(declare-fun x_25 () Bool)
(declare-fun x_26 () Real)
(declare-fun x_27 () Real)
(declare-fun x_28 () Bool)
(declare-fun x_29 () Bool)
(declare-fun x_30 () Real)
(declare-fun x_31 () Real)
(declare-fun x_32 () Bool)
(declare-fun x_33 () Bool)
(declare-fun x_34 () Real)
(declare-fun x_35 () Real)
(declare-fun x_36 () Bool)
(declare-fun x_37 () Bool)
(declare-fun x_38 () Real)
(declare-fun x_39 () Real)
(declare-fun x_40 () Bool)
(declare-fun x_41 () Bool)
(declare-fun x_42 () Real)
(declare-fun x_43 () Real)
(declare-fun x_44 () Bool)
(declare-fun x_45 () Bool)
(declare-fun x_46 () Real)
(declare-fun x_47 () Real)
(declare-fun x_48 () Bool)
(declare-fun x_49 () Bool)
(declare-fun x_50 () Real)
(declare-fun x_51 () Real)
(declare-fun x_52 () Bool)
(declare-fun x_53 () Bool)
(declare-fun x_54 () Bool)
(declare-fun x_55 () Bool)
(declare-fun x_56 () Real)
(declare-fun x_57 () Real)
(declare-fun x_58 () Real)
(declare-fun x_59 () Real)
(declare-fun x_60 () Bool)
(declare-fun x_61 () Bool)
(declare-fun x_62 () Bool)
(declare-fun x_63 () Bool)
(declare-fun x_64 () Real)
(declare-fun x_65 () Real)
(declare-fun x_66 () Real)
(declare-fun x_67 () Real)
(declare-fun x_68 () Bool)
(declare-fun x_69 () Bool)
(declare-fun x_70 () Bool)
(declare-fun x_71 () Bool)
(declare-fun x_72 () Real)
(declare-fun x_73 () Real)
(declare-fun x_74 () Real)
(declare-fun x_75 () Real)
(declare-fun x_76 () Bool)
(declare-fun x_77 () Bool)
(declare-fun x_78 () Bool)
(declare-fun x_79 () Bool)
(declare-fun x_80 () Real)
(declare-fun x_81 () Real)
(declare-fun x_82 () Real)
(declare-fun x_83 () Real)
(declare-fun x_84 () Bool)
(declare-fun x_85 () Bool)
(declare-fun x_86 () Bool)
(declare-fun x_87 () Bool)
(declare-fun x_88 () Real)
(declare-fun x_89 () Real)
(declare-fun x_90 () Real)
(declare-fun x_91 () Real)
(declare-fun x_92 () Bool)
(declare-fun x_93 () Bool)
(declare-fun x_94 () Bool)
(declare-fun x_95 () Bool)
(declare-fun x_96 () Real)
(declare-fun x_97 () Real)
(declare-fun x_98 () Real)
(declare-fun x_99 () Real)
(declare-fun x_100 () Bool)
(declare-fun x_101 () Bool)
(declare-fun x_102 () Bool)
(declare-fun x_103 () Bool)
(declare-fun x_104 () Real)
(declare-fun x_105 () Real)
(declare-fun x_106 () Real)
(declare-fun x_107 () Real)
(declare-fun x_108 () Bool)
(declare-fun x_109 () Bool)
(declare-fun x_110 () Bool)
(declare-fun x_111 () Bool)
(declare-fun x_112 () Real)
(declare-fun x_113 () Real)
(declare-fun x_114 () Real)
(declare-fun x_115 () Real)
(declare-fun x_116 () Bool)
(declare-fun x_117 () Bool)
(declare-fun x_118 () Bool)
(declare-fun x_119 () Bool)
(declare-fun x_120 () Real)
(declare-fun x_121 () Real)
(declare-fun x_122 () Real)
(declare-fun x_123 () Real)
(declare-fun x_124 () Bool)
(declare-fun x_125 () Bool)
(declare-fun x_126 () Bool)
(declare-fun x_127 () Bool)
(declare-fun x_128 () Real)
(declare-fun x_129 () Real)
(declare-fun x_130 () Real)
(declare-fun x_131 () Real)
(declare-fun x_132 () Bool)
(declare-fun x_133 () Bool)
(declare-fun x_134 () Bool)
(declare-fun x_135 () Bool)
(declare-fun x_136 () Real)
(declare-fun x_137 () Real)
(declare-fun x_138 () Real)
(declare-fun x_139 () Real)
(declare-fun x_140 () Bool)
(declare-fun x_141 () Bool)
(declare-fun x_142 () Bool)
(declare-fun x_143 () Bool)
(declare-fun x_144 () Real)
(declare-fun x_145 () Real)
(declare-fun x_146 () Real)
(declare-fun x_147 () Real)
(declare-fun x_148 () Bool)
(declare-fun x_149 () Bool)
(declare-fun x_150 () Bool)
(declare-fun x_151 () Bool)
(declare-fun x_152 () Real)
(declare-fun x_153 () Real)
(declare-fun x_154 () Real)
(declare-fun x_155 () Real)
(declare-fun x_156 () Bool)
(declare-fun x_157 () Bool)
(declare-fun x_158 () Bool)
(declare-fun x_159 () Bool)
(declare-fun x_160 () Bool)
(declare-fun x_161 () Bool)
(declare-fun x_162 () Real)
(declare-fun x_163 () Real)
(declare-fun x_164 () Real)
(declare-fun x_165 () Real)
(declare-fun x_166 () Real)
(declare-fun x_167 () Real)
(declare-fun x_168 () Real)
(declare-fun x_169 () Real)
(declare-fun x_170 () Real)
(declare-fun x_171 () Real)
(declare-fun x_172 () Real)
(declare-fun x_173 () Real)
(declare-fun x_174 () Real)
(declare-fun x_175 () Real)
(declare-fun x_176 () Real)
(declare-fun x_177 () Real)
(declare-fun x_178 () Real)
(declare-fun x_179 () Real)
(declare-fun x_180 () Real)
(declare-fun x_181 () Real)
(declare-fun x_182 () Real)
(declare-fun x_183 () Real)
(declare-fun x_184 () Real)
(declare-fun x_185 () Real)
(declare-fun x_186 () Real)
(declare-fun x_187 () Real)
(declare-fun x_188 () Real)
(declare-fun x_189 () Real)
(declare-fun x_190 () Real)
(declare-fun x_191 () Real)
(declare-fun x_192 () Real)
(declare-fun x_193 () Real)
(declare-fun x_194 () Real)
(declare-fun x_195 () Real)
(declare-fun x_196 () Real)
(declare-fun x_197 () Real)
(declare-fun x_198 () Real)
(declare-fun x_199 () Real)
(declare-fun x_200 () Real)
(declare-fun x_201 () Real)
(declare-fun x_202 () Real)
(declare-fun x_203 () Real)
(declare-fun x_204 () Real)
(declare-fun x_205 () Real)
(declare-fun x_206 () Real)
(declare-fun x_207 () Real)
(declare-fun x_208 () Real)
(declare-fun x_209 () Real)
(declare-fun x_210 () Real)
(declare-fun x_211 () Real)
(declare-fun x_212 () Real)
(declare-fun x_213 () Real)
(declare-fun x_214 () Real)
(declare-fun x_215 () Real)
(declare-fun x_216 () Real)
(declare-fun x_217 () Real)
(declare-fun x_218 () Real)
(declare-fun x_219 () Real)
(declare-fun x_220 () Real)
(declare-fun x_221 () Real)
(declare-fun x_222 () Real)
(declare-fun x_223 () Real)
(declare-fun x_224 () Real)
(declare-fun x_225 () Real)
(declare-fun x_226 () Real)
(declare-fun x_227 () Real)
(declare-fun x_228 () Real)
(declare-fun x_229 () Real)
(declare-fun x_230 () Real)
(declare-fun x_231 () Real)
(declare-fun x_232 () Real)
(declare-fun x_233 () Real)
(declare-fun x_234 () Real)
(declare-fun x_235 () Real)
(declare-fun x_236 () Real)
(declare-fun x_237 () Real)
(declare-fun x_238 () Real)
(declare-fun x_239 () Real)
(declare-fun x_240 () Real)
(declare-fun x_241 () Real)
(declare-fun x_242 () Real)
(declare-fun x_243 () Real)
(declare-fun x_244 () Real)
(declare-fun x_245 () Real)
(declare-fun x_246 () Real)
(declare-fun x_247 () Real)
(declare-fun x_248 () Real)
(declare-fun x_249 () Real)
(declare-fun x_250 () Real)
(assert (let ((?v_175 (= x_65 x_57)) (?v_176 (= x_58 x_66)) (?v_177 (= x_67 x_59)) (?v_173 (= x_56 x_64))) (let ((?v_178 (not ?v_173)) (?v_181 (= x_166 x_167)) (?v_169 (= x_60 x_52)) (?v_170 (= x_7 x_3)) (?v_174 (ite (<= x_58 x_56) x_58 x_56)) (?v_168 (ite (<= x_56 x_58) x_56 x_58)) (?v_161 (= x_73 x_65)) (?v_162 (= x_66 x_74)) (?v_163 (= x_75 x_67)) (?v_159 (= x_64 x_72))) (let ((?v_164 (not ?v_159)) (?v_167 (= x_177 x_166)) (?v_155 (= x_68 x_60)) (?v_156 (= x_11 x_7)) (?v_160 (ite (<= x_66 x_64) x_66 x_64)) (?v_154 (ite (<= x_64 x_66) x_64 x_66)) (?v_147 (= x_81 x_73)) (?v_148 (= x_74 x_82)) (?v_149 (= x_83 x_75)) (?v_145 (= x_72 x_80))) (let ((?v_150 (not ?v_145)) (?v_153 (= x_183 x_177)) (?v_141 (= x_76 x_68)) (?v_142 (= x_15 x_11)) (?v_146 (ite (<= x_74 x_72) x_74 x_72)) (?v_140 (ite (<= x_72 x_74) x_72 x_74)) (?v_133 (= x_89 x_81)) (?v_134 (= x_82 x_90)) (?v_135 (= x_91 x_83)) (?v_131 (= x_80 x_88))) (let ((?v_136 (not ?v_131)) (?v_139 (= x_189 x_183)) (?v_127 (= x_84 x_76)) (?v_128 (= x_19 x_15)) (?v_132 (ite (<= x_82 x_80) x_82 x_80)) (?v_126 (ite (<= x_80 x_82) x_80 x_82)) (?v_119 (= x_97 x_89)) (?v_120 (= x_90 x_98)) (?v_121 (= x_99 x_91)) (?v_117 (= x_88 x_96))) (let ((?v_122 (not ?v_117)) (?v_125 (= x_195 x_189)) (?v_113 (= x_92 x_84)) (?v_114 (= x_23 x_19)) (?v_118 (ite (<= x_90 x_88) x_90 x_88)) (?v_112 (ite (<= x_88 x_90) x_88 x_90)) (?v_105 (= x_105 x_97)) (?v_106 (= x_98 x_106)) (?v_107 (= x_107 x_99)) (?v_103 (= x_96 x_104))) (let ((?v_108 (not ?v_103)) (?v_111 (= x_201 x_195)) (?v_99 (= x_100 x_92)) (?v_100 (= x_27 x_23)) (?v_104 (ite (<= x_98 x_96) x_98 x_96)) (?v_98 (ite (<= x_96 x_98) x_96 x_98)) (?v_91 (= x_113 x_105)) (?v_92 (= x_106 x_114)) (?v_93 (= x_115 x_107)) (?v_89 (= x_104 x_112))) (let ((?v_94 (not ?v_89)) (?v_97 (= x_207 x_201)) (?v_85 (= x_108 x_100)) (?v_86 (= x_31 x_27)) (?v_90 (ite (<= x_106 x_104) x_106 x_104)) (?v_84 (ite (<= x_104 x_106) x_104 x_106)) (?v_77 (= x_121 x_113)) (?v_78 (= x_114 x_122)) (?v_79 (= x_123 x_115)) (?v_75 (= x_112 x_120))) (let ((?v_80 (not ?v_75)) (?v_83 (= x_213 x_207)) (?v_71 (= x_116 x_108)) (?v_72 (= x_35 x_31)) (?v_76 (ite (<= x_114 x_112) x_114 x_112)) (?v_70 (ite (<= x_112 x_114) x_112 x_114)) (?v_63 (= x_129 x_121)) (?v_64 (= x_122 x_130)) (?v_65 (= x_131 x_123)) (?v_61 (= x_120 x_128))) (let ((?v_66 (not ?v_61)) (?v_69 (= x_219 x_213)) (?v_57 (= x_124 x_116)) (?v_58 (= x_39 x_35)) (?v_62 (ite (<= x_122 x_120) x_122 x_120)) (?v_56 (ite (<= x_120 x_122) x_120 x_122)) (?v_49 (= x_137 x_129)) (?v_50 (= x_130 x_138)) (?v_51 (= x_139 x_131)) (?v_47 (= x_128 x_136))) (let ((?v_52 (not ?v_47)) (?v_55 (= x_225 x_219)) (?v_43 (= x_132 x_124)) (?v_44 (= x_43 x_39)) (?v_48 (ite (<= x_130 x_128) x_130 x_128)) (?v_42 (ite (<= x_128 x_130) x_128 x_130)) (?v_35 (= x_145 x_137)) (?v_36 (= x_138 x_146)) (?v_37 (= x_147 x_139)) (?v_33 (= x_136 x_144))) (let ((?v_38 (not ?v_33)) (?v_41 (= x_231 x_225)) (?v_29 (= x_140 x_132)) (?v_30 (= x_47 x_43)) (?v_34 (ite (<= x_138 x_136) x_138 x_136)) (?v_28 (ite (<= x_136 x_138) x_136 x_138)) (?v_21 (= x_153 x_145)) (?v_22 (= x_146 x_154)) (?v_23 (= x_155 x_147)) (?v_19 (= x_144 x_152))) (let ((?v_24 (not ?v_19)) (?v_27 (= x_237 x_231)) (?v_15 (= x_148 x_140)) (?v_16 (= x_51 x_47)) (?v_20 (ite (<= x_146 x_144) x_146 x_144)) (?v_14 (ite (<= x_144 x_146) x_144 x_146)) (?v_7 (= x_163 x_153)) (?v_8 (= x_154 x_164)) (?v_9 (= x_165 x_155)) (?v_5 (= x_152 x_162))) (let ((?v_10 (not ?v_5)) (?v_13 (= x_243 x_237)) (?v_1 (= x_156 x_148)) (?v_2 (= x_244 x_51)) (?v_6 (ite (<= x_154 x_152) x_154 x_152)) (?v_0 (ite (<= x_152 x_154) x_152 x_154)) (?v_182 (xor x_158 x_159)) (?v_3 (not x_148)) (?v_17 (not x_140)) (?v_31 (not x_132)) (?v_45 (not x_124)) (?v_59 (not x_116)) (?v_73 (not x_108)) (?v_87 (not x_100)) (?v_101 (not x_92)) (?v_115 (not x_84)) (?v_129 (not x_76)) (?v_143 (not x_68)) (?v_157 (not x_60)) (?v_171 (not x_52)) (?v_4 (= x_159 x_49)) (?v_12 (= x_51 x_244)) (?v_18 (= x_49 x_45)) (?v_26 (= x_47 x_51)) (?v_32 (= x_45 x_41)) (?v_40 (= x_43 x_47)) (?v_46 (= x_41 x_37)) (?v_54 (= x_39 x_43)) (?v_60 (= x_37 x_33)) (?v_68 (= x_35 x_39)) (?v_74 (= x_33 x_29)) (?v_82 (= x_31 x_35)) (?v_88 (= x_29 x_25)) (?v_96 (= x_27 x_31)) (?v_102 (= x_25 x_21)) (?v_110 (= x_23 x_27)) (?v_116 (= x_21 x_17)) (?v_124 (= x_19 x_23)) (?v_130 (= x_17 x_13)) (?v_138 (= x_15 x_19)) (?v_144 (= x_13 x_9)) (?v_152 (= x_11 x_15)) (?v_158 (= x_9 x_5)) (?v_166 (= x_7 x_11)) (?v_172 (= x_5 x_1)) (?v_180 (= x_3 x_7))) (let ((?v_11 (+ ?v_6 x_170)) (?v_25 (+ ?v_20 x_170)) (?v_39 (+ ?v_34 x_170)) (?v_53 (+ ?v_48 x_170)) (?v_67 (+ ?v_62 x_170)) (?v_81 (+ ?v_76 x_170)) (?v_95 (+ ?v_90 x_170)) (?v_109 (+ ?v_104 x_170)) (?v_123 (+ ?v_118 x_170)) (?v_137 (+ ?v_132 x_170)) (?v_151 (+ ?v_146 x_170)) (?v_165 (+ ?v_160 x_170)) (?v_179 (+ ?v_174 x_170))) (and (and (and (and (and (and (and (and (and (and (and (and (and (and (and (and (and (and (and (and (and (and (and (and (and (and (and (and (and (and (and (and (and (and (and (and (and (and (and (and (and (and (and (and (and (and (and (and (and (and (and (and (and (and (and (and (and (and (and (and (and (and (and (and (and (and (and (and (and (and (and (and (and (and (and (and (and (and (and (and (and (and (and (and (and (and (and (and (> x_168 0) (> x_169 0)) (>= x_170 0)) (< x_170 x_168)) (< x_170 x_169)) (>= x_175 0)) (< x_175 x_168)) (< x_175 x_169)) (or (= x_48 x_49) (= x_50 x_51))) (or (= x_44 x_45) (= x_46 x_47))) (or (= x_40 x_41) (= x_42 x_43))) (or (= x_36 x_37) (= x_38 x_39))) (or (= x_32 x_33) (= x_34 x_35))) (or (= x_28 x_29) (= x_30 x_31))) (or (= x_24 x_25) (= x_26 x_27))) (or (= x_20 x_21) (= x_22 x_23))) (or (= x_16 x_17) (= x_18 x_19))) (or (= x_12 x_13) (= x_14 x_15))) (or (= x_8 x_9) (= x_10 x_11))) (or (= x_4 x_5) (= x_6 x_7))) (or (= x_0 x_1) (= x_2 x_3))) (<= (+ (+ (+ (+ (+ (+ (+ (ite (xor x_156 x_157) 1 0) (ite (xor x_157 x_158) 1 0)) (ite ?v_182 1 0)) (ite (xor x_159 x_160) 1 0)) (ite (xor x_160 x_161) 1 0)) (ite (xor x_161 (not x_156)) 1 0)) (ite (and (= x_156 x_157) (< x_162 x_163)) 1 0)) (ite (and (= x_159 x_160) (< x_164 x_165)) 1 0)) 1)) (<= (+ (+ (+ (+ (+ (+ (+ (ite (xor x_148 x_149) 1 0) (ite (xor x_149 x_48) 1 0)) (ite (xor x_48 x_49) 1 0)) (ite (xor x_49 x_150) 1 0)) (ite (xor x_150 x_151) 1 0)) (ite (xor x_151 ?v_3) 1 0)) (ite (and (= x_148 x_149) (< x_152 x_153)) 1 0)) (ite (and (= x_49 x_150) (< x_154 x_155)) 1 0)) 1)) (<= (+ (+ (+ (+ (+ (+ (+ (ite (xor x_140 x_141) 1 0) (ite (xor x_141 x_44) 1 0)) (ite (xor x_44 x_45) 1 0)) (ite (xor x_45 x_142) 1 0)) (ite (xor x_142 x_143) 1 0)) (ite (xor x_143 ?v_17) 1 0)) (ite (and (= x_140 x_141) (< x_144 x_145)) 1 0)) (ite (and (= x_45 x_142) (< x_146 x_147)) 1 0)) 1)) (<= (+ (+ (+ (+ (+ (+ (+ (ite (xor x_132 x_133) 1 0) (ite (xor x_133 x_40) 1 0)) (ite (xor x_40 x_41) 1 0)) (ite (xor x_41 x_134) 1 0)) (ite (xor x_134 x_135) 1 0)) (ite (xor x_135 ?v_31) 1 0)) (ite (and (= x_132 x_133) (< x_136 x_137)) 1 0)) (ite (and (= x_41 x_134) (< x_138 x_139)) 1 0)) 1)) (<= (+ (+ (+ (+ (+ (+ (+ (ite (xor x_124 x_125) 1 0) (ite (xor x_125 x_36) 1 0)) (ite (xor x_36 x_37) 1 0)) (ite (xor x_37 x_126) 1 0)) (ite (xor x_126 x_127) 1 0)) (ite (xor x_127 ?v_45) 1 0)) (ite (and (= x_124 x_125) (< x_128 x_129)) 1 0)) (ite (and (= x_37 x_126) (< x_130 x_131)) 1 0)) 1)) (<= (+ (+ (+ (+ (+ (+ (+ (ite (xor x_116 x_117) 1 0) (ite (xor x_117 x_32) 1 0)) (ite (xor x_32 x_33) 1 0)) (ite (xor x_33 x_118) 1 0)) (ite (xor x_118 x_119) 1 0)) (ite (xor x_119 ?v_59) 1 0)) (ite (and (= x_116 x_117) (< x_120 x_121)) 1 0)) (ite (and (= x_33 x_118) (< x_122 x_123)) 1 0)) 1)) (<= (+ (+ (+ (+ (+ (+ (+ (ite (xor x_108 x_109) 1 0) (ite (xor x_109 x_28) 1 0)) (ite (xor x_28 x_29) 1 0)) (ite (xor x_29 x_110) 1 0)) (ite (xor x_110 x_111) 1 0)) (ite (xor x_111 ?v_73) 1 0)) (ite (and (= x_108 x_109) (< x_112 x_113)) 1 0)) (ite (and (= x_29 x_110) (< x_114 x_115)) 1 0)) 1)) (<= (+ (+ (+ (+ (+ (+ (+ (ite (xor x_100 x_101) 1 0) (ite (xor x_101 x_24) 1 0)) (ite (xor x_24 x_25) 1 0)) (ite (xor x_25 x_102) 1 0)) (ite (xor x_102 x_103) 1 0)) (ite (xor x_103 ?v_87) 1 0)) (ite (and (= x_100 x_101) (< x_104 x_105)) 1 0)) (ite (and (= x_25 x_102) (< x_106 x_107)) 1 0)) 1)) (<= (+ (+ (+ (+ (+ (+ (+ (ite (xor x_92 x_93) 1 0) (ite (xor x_93 x_20) 1 0)) (ite (xor x_20 x_21) 1 0)) (ite (xor x_21 x_94) 1 0)) (ite (xor x_94 x_95) 1 0)) (ite (xor x_95 ?v_101) 1 0)) (ite (and (= x_92 x_93) (< x_96 x_97)) 1 0)) (ite (and (= x_21 x_94) (< x_98 x_99)) 1 0)) 1)) (<= (+ (+ (+ (+ (+ (+ (+ (ite (xor x_84 x_85) 1 0) (ite (xor x_85 x_16) 1 0)) (ite (xor x_16 x_17) 1 0)) (ite (xor x_17 x_86) 1 0)) (ite (xor x_86 x_87) 1 0)) (ite (xor x_87 ?v_115) 1 0)) (ite (and (= x_84 x_85) (< x_88 x_89)) 1 0)) (ite (and (= x_17 x_86) (< x_90 x_91)) 1 0)) 1)) (<= (+ (+ (+ (+ (+ (+ (+ (ite (xor x_76 x_77) 1 0) (ite (xor x_77 x_12) 1 0)) (ite (xor x_12 x_13) 1 0)) (ite (xor x_13 x_78) 1 0)) (ite (xor x_78 x_79) 1 0)) (ite (xor x_79 ?v_129) 1 0)) (ite (and (= x_76 x_77) (< x_80 x_81)) 1 0)) (ite (and (= x_13 x_78) (< x_82 x_83)) 1 0)) 1)) (<= (+ (+ (+ (+ (+ (+ (+ (ite (xor x_68 x_69) 1 0) (ite (xor x_69 x_8) 1 0)) (ite (xor x_8 x_9) 1 0)) (ite (xor x_9 x_70) 1 0)) (ite (xor x_70 x_71) 1 0)) (ite (xor x_71 ?v_143) 1 0)) (ite (and (= x_68 x_69) (< x_72 x_73)) 1 0)) (ite (and (= x_9 x_70) (< x_74 x_75)) 1 0)) 1)) (<= (+ (+ (+ (+ (+ (+ (+ (ite (xor x_60 x_61) 1 0) (ite (xor x_61 x_4) 1 0)) (ite (xor x_4 x_5) 1 0)) (ite (xor x_5 x_62) 1 0)) (ite (xor x_62 x_63) 1 0)) (ite (xor x_63 ?v_157) 1 0)) (ite (and (= x_60 x_61) (< x_64 x_65)) 1 0)) (ite (and (= x_5 x_62) (< x_66 x_67)) 1 0)) 1)) (<= (+ (+ (+ (+ (+ (+ (+ (ite (xor x_52 x_53) 1 0) (ite (xor x_53 x_0) 1 0)) (ite (xor x_0 x_1) 1 0)) (ite (xor x_1 x_54) 1 0)) (ite (xor x_54 x_55) 1 0)) (ite (xor x_55 ?v_171) 1 0)) (ite (and (= x_52 x_53) (< x_56 x_57)) 1 0)) (ite (and (= x_1 x_54) (< x_58 x_59)) 1 0)) 1)) (or (and (and (and (and (and (and (and (and (and (= x_245 0) (= x_158 x_149)) (= ?v_0 x_152)) (<= (+ ?v_0 x_168) x_162)) (or ?v_4 (= x_159 x_48))) (= x_160 x_150)) (= x_161 x_151)) (= x_164 x_154)) ?v_1) ?v_2) (and (and (and (and (and (and (and (and (and (= x_245 1) (= x_161 x_150)) (= ?v_0 x_154)) (<= (+ ?v_0 x_169) x_164)) (or (and (and (= x_246 0) ?v_1) ?v_2) (and (and (= x_246 1) (= x_148 x_151)) (= x_156 ?v_3)))) (= x_157 x_149)) (= x_158 x_48)) (= x_247 x_50)) (= x_162 x_152)) ?v_4))) (or (or (and (and (and (= x_248 0) ?v_10) (or (not (<= x_153 ?v_6)) (= x_157 x_148))) ?v_7) (and (and (and (= x_248 1) ?v_5) (xor x_148 x_156)) (= x_163 ?v_11))) (and (and (and (= x_248 2) ?v_5) (= x_148 x_156)) ?v_7))) (or (or (and (and (and (= x_249 0) (not ?v_8)) (or (not (<= x_155 ?v_0)) (= x_160 x_49))) ?v_9) (and (and (and (= x_249 1) ?v_8) (xor x_49 x_159)) (= x_165 (+ ?v_0 x_175)))) (and (and (and (= x_249 2) ?v_8) (= x_49 x_159)) ?v_9))) (or (or (and (and (and (= x_250 0) ?v_10) (or (not (<= x_237 ?v_6)) (= x_247 x_51))) ?v_13) (and (and (and (= x_250 1) ?v_5) (not ?v_12)) (= x_243 ?v_11))) (and (and (and (= x_250 2) ?v_5) ?v_12) ?v_13))) (or (and (and (and (and (and (and (and (and (and (= x_238 0) (= x_48 x_141)) (= ?v_14 x_144)) (<= (+ ?v_14 x_168) x_152)) (or ?v_18 (= x_49 x_44))) (= x_150 x_142)) (= x_151 x_143)) (= x_154 x_146)) ?v_15) ?v_16) (and (and (and (and (and (and (and (and (and (= x_238 1) (= x_151 x_142)) (= ?v_14 x_146)) (<= (+ ?v_14 x_169) x_154)) (or (and (and (= x_239 0) ?v_15) ?v_16) (and (and (= x_239 1) (= x_140 x_143)) (= x_148 ?v_17)))) (= x_149 x_141)) (= x_48 x_44)) (= x_50 x_46)) (= x_152 x_144)) ?v_18))) (or (or (and (and (and (= x_240 0) ?v_24) (or (not (<= x_145 ?v_20)) (= x_149 x_140))) ?v_21) (and (and (and (= x_240 1) ?v_19) (xor x_140 x_148)) (= x_153 ?v_25))) (and (and (and (= x_240 2) ?v_19) (= x_140 x_148)) ?v_21))) (or (or (and (and (and (= x_241 0) (not ?v_22)) (or (not (<= x_147 ?v_14)) (= x_150 x_45))) ?v_23) (and (and (and (= x_241 1) ?v_22) (xor x_45 x_49)) (= x_155 (+ ?v_14 x_175)))) (and (and (and (= x_241 2) ?v_22) (= x_45 x_49)) ?v_23))) (or (or (and (and (and (= x_242 0) ?v_24) (or (not (<= x_231 ?v_20)) (= x_50 x_47))) ?v_27) (and (and (and (= x_242 1) ?v_19) (not ?v_26)) (= x_237 ?v_25))) (and (and (and (= x_242 2) ?v_19) ?v_26) ?v_27))) (or (and (and (and (and (and (and (and (and (and (= x_232 0) (= x_44 x_133)) (= ?v_28 x_136)) (<= (+ ?v_28 x_168) x_144)) (or ?v_32 (= x_45 x_40))) (= x_142 x_134)) (= x_143 x_135)) (= x_146 x_138)) ?v_29) ?v_30) (and (and (and (and (and (and (and (and (and (= x_232 1) (= x_143 x_134)) (= ?v_28 x_138)) (<= (+ ?v_28 x_169) x_146)) (or (and (and (= x_233 0) ?v_29) ?v_30) (and (and (= x_233 1) (= x_132 x_135)) (= x_140 ?v_31)))) (= x_141 x_133)) (= x_44 x_40)) (= x_46 x_42)) (= x_144 x_136)) ?v_32))) (or (or (and (and (and (= x_234 0) ?v_38) (or (not (<= x_137 ?v_34)) (= x_141 x_132))) ?v_35) (and (and (and (= x_234 1) ?v_33) (xor x_132 x_140)) (= x_145 ?v_39))) (and (and (and (= x_234 2) ?v_33) (= x_132 x_140)) ?v_35))) (or (or (and (and (and (= x_235 0) (not ?v_36)) (or (not (<= x_139 ?v_28)) (= x_142 x_41))) ?v_37) (and (and (and (= x_235 1) ?v_36) (xor x_41 x_45)) (= x_147 (+ ?v_28 x_175)))) (and (and (and (= x_235 2) ?v_36) (= x_41 x_45)) ?v_37))) (or (or (and (and (and (= x_236 0) ?v_38) (or (not (<= x_225 ?v_34)) (= x_46 x_43))) ?v_41) (and (and (and (= x_236 1) ?v_33) (not ?v_40)) (= x_231 ?v_39))) (and (and (and (= x_236 2) ?v_33) ?v_40) ?v_41))) (or (and (and (and (and (and (and (and (and (and (= x_226 0) (= x_40 x_125)) (= ?v_42 x_128)) (<= (+ ?v_42 x_168) x_136)) (or ?v_46 (= x_41 x_36))) (= x_134 x_126)) (= x_135 x_127)) (= x_138 x_130)) ?v_43) ?v_44) (and (and (and (and (and (and (and (and (and (= x_226 1) (= x_135 x_126)) (= ?v_42 x_130)) (<= (+ ?v_42 x_169) x_138)) (or (and (and (= x_227 0) ?v_43) ?v_44) (and (and (= x_227 1) (= x_124 x_127)) (= x_132 ?v_45)))) (= x_133 x_125)) (= x_40 x_36)) (= x_42 x_38)) (= x_136 x_128)) ?v_46))) (or (or (and (and (and (= x_228 0) ?v_52) (or (not (<= x_129 ?v_48)) (= x_133 x_124))) ?v_49) (and (and (and (= x_228 1) ?v_47) (xor x_124 x_132)) (= x_137 ?v_53))) (and (and (and (= x_228 2) ?v_47) (= x_124 x_132)) ?v_49))) (or (or (and (and (and (= x_229 0) (not ?v_50)) (or (not (<= x_131 ?v_42)) (= x_134 x_37))) ?v_51) (and (and (and (= x_229 1) ?v_50) (xor x_37 x_41)) (= x_139 (+ ?v_42 x_175)))) (and (and (and (= x_229 2) ?v_50) (= x_37 x_41)) ?v_51))) (or (or (and (and (and (= x_230 0) ?v_52) (or (not (<= x_219 ?v_48)) (= x_42 x_39))) ?v_55) (and (and (and (= x_230 1) ?v_47) (not ?v_54)) (= x_225 ?v_53))) (and (and (and (= x_230 2) ?v_47) ?v_54) ?v_55))) (or (and (and (and (and (and (and (and (and (and (= x_220 0) (= x_36 x_117)) (= ?v_56 x_120)) (<= (+ ?v_56 x_168) x_128)) (or ?v_60 (= x_37 x_32))) (= x_126 x_118)) (= x_127 x_119)) (= x_130 x_122)) ?v_57) ?v_58) (and (and (and (and (and (and (and (and (and (= x_220 1) (= x_127 x_118)) (= ?v_56 x_122)) (<= (+ ?v_56 x_169) x_130)) (or (and (and (= x_221 0) ?v_57) ?v_58) (and (and (= x_221 1) (= x_116 x_119)) (= x_124 ?v_59)))) (= x_125 x_117)) (= x_36 x_32)) (= x_38 x_34)) (= x_128 x_120)) ?v_60))) (or (or (and (and (and (= x_222 0) ?v_66) (or (not (<= x_121 ?v_62)) (= x_125 x_116))) ?v_63) (and (and (and (= x_222 1) ?v_61) (xor x_116 x_124)) (= x_129 ?v_67))) (and (and (and (= x_222 2) ?v_61) (= x_116 x_124)) ?v_63))) (or (or (and (and (and (= x_223 0) (not ?v_64)) (or (not (<= x_123 ?v_56)) (= x_126 x_33))) ?v_65) (and (and (and (= x_223 1) ?v_64) (xor x_33 x_37)) (= x_131 (+ ?v_56 x_175)))) (and (and (and (= x_223 2) ?v_64) (= x_33 x_37)) ?v_65))) (or (or (and (and (and (= x_224 0) ?v_66) (or (not (<= x_213 ?v_62)) (= x_38 x_35))) ?v_69) (and (and (and (= x_224 1) ?v_61) (not ?v_68)) (= x_219 ?v_67))) (and (and (and (= x_224 2) ?v_61) ?v_68) ?v_69))) (or (and (and (and (and (and (and (and (and (and (= x_214 0) (= x_32 x_109)) (= ?v_70 x_112)) (<= (+ ?v_70 x_168) x_120)) (or ?v_74 (= x_33 x_28))) (= x_118 x_110)) (= x_119 x_111)) (= x_122 x_114)) ?v_71) ?v_72) (and (and (and (and (and (and (and (and (and (= x_214 1) (= x_119 x_110)) (= ?v_70 x_114)) (<= (+ ?v_70 x_169) x_122)) (or (and (and (= x_215 0) ?v_71) ?v_72) (and (and (= x_215 1) (= x_108 x_111)) (= x_116 ?v_73)))) (= x_117 x_109)) (= x_32 x_28)) (= x_34 x_30)) (= x_120 x_112)) ?v_74))) (or (or (and (and (and (= x_216 0) ?v_80) (or (not (<= x_113 ?v_76)) (= x_117 x_108))) ?v_77) (and (and (and (= x_216 1) ?v_75) (xor x_108 x_116)) (= x_121 ?v_81))) (and (and (and (= x_216 2) ?v_75) (= x_108 x_116)) ?v_77))) (or (or (and (and (and (= x_217 0) (not ?v_78)) (or (not (<= x_115 ?v_70)) (= x_118 x_29))) ?v_79) (and (and (and (= x_217 1) ?v_78) (xor x_29 x_33)) (= x_123 (+ ?v_70 x_175)))) (and (and (and (= x_217 2) ?v_78) (= x_29 x_33)) ?v_79))) (or (or (and (and (and (= x_218 0) ?v_80) (or (not (<= x_207 ?v_76)) (= x_34 x_31))) ?v_83) (and (and (and (= x_218 1) ?v_75) (not ?v_82)) (= x_213 ?v_81))) (and (and (and (= x_218 2) ?v_75) ?v_82) ?v_83))) (or (and (and (and (and (and (and (and (and (and (= x_208 0) (= x_28 x_101)) (= ?v_84 x_104)) (<= (+ ?v_84 x_168) x_112)) (or ?v_88 (= x_29 x_24))) (= x_110 x_102)) (= x_111 x_103)) (= x_114 x_106)) ?v_85) ?v_86) (and (and (and (and (and (and (and (and (and (= x_208 1) (= x_111 x_102)) (= ?v_84 x_106)) (<= (+ ?v_84 x_169) x_114)) (or (and (and (= x_209 0) ?v_85) ?v_86) (and (and (= x_209 1) (= x_100 x_103)) (= x_108 ?v_87)))) (= x_109 x_101)) (= x_28 x_24)) (= x_30 x_26)) (= x_112 x_104)) ?v_88))) (or (or (and (and (and (= x_210 0) ?v_94) (or (not (<= x_105 ?v_90)) (= x_109 x_100))) ?v_91) (and (and (and (= x_210 1) ?v_89) (xor x_100 x_108)) (= x_113 ?v_95))) (and (and (and (= x_210 2) ?v_89) (= x_100 x_108)) ?v_91))) (or (or (and (and (and (= x_211 0) (not ?v_92)) (or (not (<= x_107 ?v_84)) (= x_110 x_25))) ?v_93) (and (and (and (= x_211 1) ?v_92) (xor x_25 x_29)) (= x_115 (+ ?v_84 x_175)))) (and (and (and (= x_211 2) ?v_92) (= x_25 x_29)) ?v_93))) (or (or (and (and (and (= x_212 0) ?v_94) (or (not (<= x_201 ?v_90)) (= x_30 x_27))) ?v_97) (and (and (and (= x_212 1) ?v_89) (not ?v_96)) (= x_207 ?v_95))) (and (and (and (= x_212 2) ?v_89) ?v_96) ?v_97))) (or (and (and (and (and (and (and (and (and (and (= x_202 0) (= x_24 x_93)) (= ?v_98 x_96)) (<= (+ ?v_98 x_168) x_104)) (or ?v_102 (= x_25 x_20))) (= x_102 x_94)) (= x_103 x_95)) (= x_106 x_98)) ?v_99) ?v_100) (and (and (and (and (and (and (and (and (and (= x_202 1) (= x_103 x_94)) (= ?v_98 x_98)) (<= (+ ?v_98 x_169) x_106)) (or (and (and (= x_203 0) ?v_99) ?v_100) (and (and (= x_203 1) (= x_92 x_95)) (= x_100 ?v_101)))) (= x_101 x_93)) (= x_24 x_20)) (= x_26 x_22)) (= x_104 x_96)) ?v_102))) (or (or (and (and (and (= x_204 0) ?v_108) (or (not (<= x_97 ?v_104)) (= x_101 x_92))) ?v_105) (and (and (and (= x_204 1) ?v_103) (xor x_92 x_100)) (= x_105 ?v_109))) (and (and (and (= x_204 2) ?v_103) (= x_92 x_100)) ?v_105))) (or (or (and (and (and (= x_205 0) (not ?v_106)) (or (not (<= x_99 ?v_98)) (= x_102 x_21))) ?v_107) (and (and (and (= x_205 1) ?v_106) (xor x_21 x_25)) (= x_107 (+ ?v_98 x_175)))) (and (and (and (= x_205 2) ?v_106) (= x_21 x_25)) ?v_107))) (or (or (and (and (and (= x_206 0) ?v_108) (or (not (<= x_195 ?v_104)) (= x_26 x_23))) ?v_111) (and (and (and (= x_206 1) ?v_103) (not ?v_110)) (= x_201 ?v_109))) (and (and (and (= x_206 2) ?v_103) ?v_110) ?v_111))) (or (and (and (and (and (and (and (and (and (and (= x_196 0) (= x_20 x_85)) (= ?v_112 x_88)) (<= (+ ?v_112 x_168) x_96)) (or ?v_116 (= x_21 x_16))) (= x_94 x_86)) (= x_95 x_87)) (= x_98 x_90)) ?v_113) ?v_114) (and (and (and (and (and (and (and (and (and (= x_196 1) (= x_95 x_86)) (= ?v_112 x_90)) (<= (+ ?v_112 x_169) x_98)) (or (and (and (= x_197 0) ?v_113) ?v_114) (and (and (= x_197 1) (= x_84 x_87)) (= x_92 ?v_115)))) (= x_93 x_85)) (= x_20 x_16)) (= x_22 x_18)) (= x_96 x_88)) ?v_116))) (or (or (and (and (and (= x_198 0) ?v_122) (or (not (<= x_89 ?v_118)) (= x_93 x_84))) ?v_119) (and (and (and (= x_198 1) ?v_117) (xor x_84 x_92)) (= x_97 ?v_123))) (and (and (and (= x_198 2) ?v_117) (= x_84 x_92)) ?v_119))) (or (or (and (and (and (= x_199 0) (not ?v_120)) (or (not (<= x_91 ?v_112)) (= x_94 x_17))) ?v_121) (and (and (and (= x_199 1) ?v_120) (xor x_17 x_21)) (= x_99 (+ ?v_112 x_175)))) (and (and (and (= x_199 2) ?v_120) (= x_17 x_21)) ?v_121))) (or (or (and (and (and (= x_200 0) ?v_122) (or (not (<= x_189 ?v_118)) (= x_22 x_19))) ?v_125) (and (and (and (= x_200 1) ?v_117) (not ?v_124)) (= x_195 ?v_123))) (and (and (and (= x_200 2) ?v_117) ?v_124) ?v_125))) (or (and (and (and (and (and (and (and (and (and (= x_190 0) (= x_16 x_77)) (= ?v_126 x_80)) (<= (+ ?v_126 x_168) x_88)) (or ?v_130 (= x_17 x_12))) (= x_86 x_78)) (= x_87 x_79)) (= x_90 x_82)) ?v_127) ?v_128) (and (and (and (and (and (and (and (and (and (= x_190 1) (= x_87 x_78)) (= ?v_126 x_82)) (<= (+ ?v_126 x_169) x_90)) (or (and (and (= x_191 0) ?v_127) ?v_128) (and (and (= x_191 1) (= x_76 x_79)) (= x_84 ?v_129)))) (= x_85 x_77)) (= x_16 x_12)) (= x_18 x_14)) (= x_88 x_80)) ?v_130))) (or (or (and (and (and (= x_192 0) ?v_136) (or (not (<= x_81 ?v_132)) (= x_85 x_76))) ?v_133) (and (and (and (= x_192 1) ?v_131) (xor x_76 x_84)) (= x_89 ?v_137))) (and (and (and (= x_192 2) ?v_131) (= x_76 x_84)) ?v_133))) (or (or (and (and (and (= x_193 0) (not ?v_134)) (or (not (<= x_83 ?v_126)) (= x_86 x_13))) ?v_135) (and (and (and (= x_193 1) ?v_134) (xor x_13 x_17)) (= x_91 (+ ?v_126 x_175)))) (and (and (and (= x_193 2) ?v_134) (= x_13 x_17)) ?v_135))) (or (or (and (and (and (= x_194 0) ?v_136) (or (not (<= x_183 ?v_132)) (= x_18 x_15))) ?v_139) (and (and (and (= x_194 1) ?v_131) (not ?v_138)) (= x_189 ?v_137))) (and (and (and (= x_194 2) ?v_131) ?v_138) ?v_139))) (or (and (and (and (and (and (and (and (and (and (= x_184 0) (= x_12 x_69)) (= ?v_140 x_72)) (<= (+ ?v_140 x_168) x_80)) (or ?v_144 (= x_13 x_8))) (= x_78 x_70)) (= x_79 x_71)) (= x_82 x_74)) ?v_141) ?v_142) (and (and (and (and (and (and (and (and (and (= x_184 1) (= x_79 x_70)) (= ?v_140 x_74)) (<= (+ ?v_140 x_169) x_82)) (or (and (and (= x_185 0) ?v_141) ?v_142) (and (and (= x_185 1) (= x_68 x_71)) (= x_76 ?v_143)))) (= x_77 x_69)) (= x_12 x_8)) (= x_14 x_10)) (= x_80 x_72)) ?v_144))) (or (or (and (and (and (= x_186 0) ?v_150) (or (not (<= x_73 ?v_146)) (= x_77 x_68))) ?v_147) (and (and (and (= x_186 1) ?v_145) (xor x_68 x_76)) (= x_81 ?v_151))) (and (and (and (= x_186 2) ?v_145) (= x_68 x_76)) ?v_147))) (or (or (and (and (and (= x_187 0) (not ?v_148)) (or (not (<= x_75 ?v_140)) (= x_78 x_9))) ?v_149) (and (and (and (= x_187 1) ?v_148) (xor x_9 x_13)) (= x_83 (+ ?v_140 x_175)))) (and (and (and (= x_187 2) ?v_148) (= x_9 x_13)) ?v_149))) (or (or (and (and (and (= x_188 0) ?v_150) (or (not (<= x_177 ?v_146)) (= x_14 x_11))) ?v_153) (and (and (and (= x_188 1) ?v_145) (not ?v_152)) (= x_183 ?v_151))) (and (and (and (= x_188 2) ?v_145) ?v_152) ?v_153))) (or (and (and (and (and (and (and (and (and (and (= x_178 0) (= x_8 x_61)) (= ?v_154 x_64)) (<= (+ ?v_154 x_168) x_72)) (or ?v_158 (= x_9 x_4))) (= x_70 x_62)) (= x_71 x_63)) (= x_74 x_66)) ?v_155) ?v_156) (and (and (and (and (and (and (and (and (and (= x_178 1) (= x_71 x_62)) (= ?v_154 x_66)) (<= (+ ?v_154 x_169) x_74)) (or (and (and (= x_179 0) ?v_155) ?v_156) (and (and (= x_179 1) (= x_60 x_63)) (= x_68 ?v_157)))) (= x_69 x_61)) (= x_8 x_4)) (= x_10 x_6)) (= x_72 x_64)) ?v_158))) (or (or (and (and (and (= x_180 0) ?v_164) (or (not (<= x_65 ?v_160)) (= x_69 x_60))) ?v_161) (and (and (and (= x_180 1) ?v_159) (xor x_60 x_68)) (= x_73 ?v_165))) (and (and (and (= x_180 2) ?v_159) (= x_60 x_68)) ?v_161))) (or (or (and (and (and (= x_181 0) (not ?v_162)) (or (not (<= x_67 ?v_154)) (= x_70 x_5))) ?v_163) (and (and (and (= x_181 1) ?v_162) (xor x_5 x_9)) (= x_75 (+ ?v_154 x_175)))) (and (and (and (= x_181 2) ?v_162) (= x_5 x_9)) ?v_163))) (or (or (and (and (and (= x_182 0) ?v_164) (or (not (<= x_166 ?v_160)) (= x_10 x_7))) ?v_167) (and (and (and (= x_182 1) ?v_159) (not ?v_166)) (= x_177 ?v_165))) (and (and (and (= x_182 2) ?v_159) ?v_166) ?v_167))) (or (and (and (and (and (and (and (and (and (and (= x_171 0) (= x_4 x_53)) (= ?v_168 x_56)) (<= (+ ?v_168 x_168) x_64)) (or ?v_172 (= x_5 x_0))) (= x_62 x_54)) (= x_63 x_55)) (= x_66 x_58)) ?v_169) ?v_170) (and (and (and (and (and (and (and (and (and (= x_171 1) (= x_63 x_54)) (= ?v_168 x_58)) (<= (+ ?v_168 x_169) x_66)) (or (and (and (= x_172 0) ?v_169) ?v_170) (and (and (= x_172 1) (= x_52 x_55)) (= x_60 ?v_171)))) (= x_61 x_53)) (= x_4 x_0)) (= x_6 x_2)) (= x_64 x_56)) ?v_172))) (or (or (and (and (and (= x_173 0) ?v_178) (or (not (<= x_57 ?v_174)) (= x_61 x_52))) ?v_175) (and (and (and (= x_173 1) ?v_173) (xor x_52 x_60)) (= x_65 ?v_179))) (and (and (and (= x_173 2) ?v_173) (= x_52 x_60)) ?v_175))) (or (or (and (and (and (= x_174 0) (not ?v_176)) (or (not (<= x_59 ?v_168)) (= x_62 x_1))) ?v_177) (and (and (and (= x_174 1) ?v_176) (xor x_1 x_5)) (= x_67 (+ ?v_168 x_175)))) (and (and (and (= x_174 2) ?v_176) (= x_1 x_5)) ?v_177))) (or (or (and (and (and (= x_176 0) ?v_178) (or (not (<= x_167 ?v_174)) (= x_6 x_3))) ?v_181) (and (and (and (= x_176 1) ?v_173) (not ?v_180)) (= x_166 ?v_179))) (and (and (and (= x_176 2) ?v_173) ?v_180) ?v_181))) ?v_182) (not (= x_247 x_244)))))))))))))))))))
(check-sat)
(exit)
